p cnf 38 50
24 -10 -20 0
26 6 37 0
18 28 -5 0
-35 -3 13 0
-22 32 24 0
-17 24 -22 0
-38 -37 10 0
-8 -31 9 0
36 24 -16 0
25 -15 -8 0
-4 -36 -4 0
16 -37 26 0
-37 -15 22 0
28 34 -15 0
-32 16 32 0
2 28 16 0
14 32 15 0
-14 -5 -1 0
-1 13 10 0
5 -25 -28 0
-16 -19 -14 0
-31 -20 -29 0
-38 27 35 0
-10 16 -5 0
15 -20 -20 0
1 2 3 4 5 6 7 8 9 10 11 12 13 14 15 16 17 18 19 20 21 22 23 24 25 26 27 28 29 30 31 32 33 34 35 36 37 38 0
4 -34 3 0
10 6 -2 0
-1 15 31 0
17 32 -13 0
17 3 -23 0
-23 -23 13 0
-31 31 32 0
-4 -8 -18 0
-25 19 -24 0
-11 23 38 0
-17 -16 -26 0
-25 -4 11 0
34 -38 -31 0
33 37 25 0
-1 -2 -3 -4 -5 -6 -7 -8 -9 -10 -11 -12 -13 -14 -15 -16 -17 -18 -19 -20 -21 -22 -23 -24 -25 -26 -27 -28 -29 -30 -31 -32 -33 -34 -35 -36 -37 -38 0
-7 -18 -12 0
24 36 -30 0
-15 -1 19 0
16 18 -9 0
29 -20 31 0
-17 -24 37 0
29 17 4 0
30 21 -5 0
38 -4 -28 0
